coords = array2d(1..26, 1..2, [672, 913, 689, 753, 268, 580, 572, 546, 711, 37,
    549, 725, 918, 560, 575, 418, 907, 231, 126, 683, 480, 353, 674,
    471, 616, 15, 585, 652, 888, 616, 670, 778, 246, 877, 810, 692,
    99, 127, 929, 854, 725, 568, 881, 485, 174, 301, 205, 669, 154,
    584, 931, 144]);

n = 26;

